set Z;
 set Y;
 param A{r in Z, m in Y} default 0, binary;
 var Route{m in Y}, binary;
 minimize cost: sum{m in Y} Route[m];
 subject to covers{r in Z}: sum{m in Y} A[r,m]*Route[m]>=1;
 solve; 
 printf {m in Y:  Route[m] == 1} "%s ", m > "C:/Users/Guilherme/Documents/GitHub/SirisOnRails/Results.txt";
 data;
set Z:= Z45 Z46 Z47 Z48 Z49 Z50 Z51 Z52 Z53 Z54 Z55 Z56 Z57 Z58 Z60 Z62 Z593 Z594 Z595 Z596 Z597 Z598 Z599 Z600 Z601 Z602 Z603 Z604 Z605 Z606 Z607 Z608 Z609 Z610 Z611 Z612 Z613 Z614 Z615 Z616 Z617 Z618 Z619 Z620 Z623 Z624 Z625 Z626 Z627 Z628 Z629 Z630 Z631 Z632 Z633 Z634 Z635 Z636 Z637 Z638 Z639 Z640 Z641 Z642 Z643 Z644 Z645 Z646 Z647 Z648 Z649 Z650 Z651 Z652 Z653 Z654 Z655 Z656 Z663 Z664 Z665 Z666 Z667 Z668 Z669 Z670 Z671 Z672 Z673 Z674 Z675 Z676 Z677 Z678 Z679 Z680 Z681 Z682 Z683 Z684 Z685 Z686 Z687 Z688 Z689 Z690 Z691 Z692 Z693 Z694 Z695 Z696 Z697 Z698 Z699 Z700 Z701 Z702 Z703 Z704 Z705 Z706 Z707 Z708 Z709 Z710 Z711 Z712 Z713 Z714 Z715 Z716 Z717 Z718 Z719 Z720 Z721 Z722 Z723 Z724 Z725 Z726 Z727 Z728 Z729 Z730 Z731 Z732 Z733 Z734 Z735 Z736 Z737 Z738 Z739 Z740 Z741 Z742 Z743 Z744 Z745 Z746 Z747 Z748 Z749 Z750 Z751 Z752 Z753 Z754 Z755 Z756 Z757 Z758 Z759 Z760 Z761 Z762 Z763 Z764 Z765 Z766 Z767 Z768 Z769 Z770 Z773 Z774 Z775 Z776 Z777 Z778 Z779 Z780 Z781 Z782 Z785 Z786 Z787 Z788 Z789 Z790 Z791 Z792 Z793 Z794 Z795 Z796 Z797 Z798 Z799 Z800 Z803 Z804 Z806 Z807 Z808 Z809 Z810 Z811 Z812 Z813 Z814 Z815 Z816 Z817 Z818 Z819 Z820 Z821 Z822 Z823 Z824 Z825 Z826 Z827 Z828 Z829 Z830 Z831 Z832 Z833 Z834 Z835 Z836 Z837 Z838 Z839 Z840 Z841 Z842 Z843 Z844 Z845 Z846 Z847 Z848 Z849 Z850 Z851 Z852 Z853 Z854 Z855 Z856 Z857 Z858 Z859 Z860 Z861 Z862 Z863 Z864 Z865 Z866 Z867 Z868 Z869 Z870 Z871 Z872 Z873 Z874 Z875 Z876 Z877 Z878 Z879 Z880 Z881 Z882 Z883 Z884 Z885 Z886 Z887 Z888 Z889 Z890 Z891 Z892 Z893 Z894 Z895 Z896 Z897 Z898 Z899 Z900 Z901 Z902 Z904 Z905 Z906 Z907 Z908 Z909 Z910 Z911 Z912 Z913 Z914 Z915 Z916 Z917 Z918 Z921 Z922 Z923 Z924 Z925 Z926 Z927 Z928 Z929 Z930 Z931 Z932 Z933 Z934 Z935 Z936 Z937 Z938 Z939 Z940 Z941 Z942 Z943 Z944 Z945 Z946 Z947 Z948 Z951 Z952 Z953 Z954 Z957 Z958 Z959 Z960 Z961 Z962 Z963 Z964 Z965 Z966 Z967 Z968 Z969 Z970 Z971 Z972 Z973 Z974 Z975 Z976 Z977 Z978 Z979 Z980 Z981 Z982 Z983 Z984 Z1145 Z1146 Z1147 Z1148 Z1149 Z1150 Z1151 Z1152 Z1153 Z1154 Z1155 Z1156 Z1157 Z1158 Z1169 Z1170 Z1209 Z1210 Z1211 Z1212 Z1213 Z1214 Z1215 Z1216 Z1217 Z1218 Z1219 Z1220 Z1221 Z1222 Z1223 Z1224 Z1225 Z1226 Z1227 Z1228 Z1229 Z1230 Z1231 Z1232 Z1233 Z1234 Z1235 Z1236 Z1237 Z1238 Z1239 Z1240 Z1241 Z1242 Z1243 Z1244 Z1245 Z1246 Z1247 Z1248 Z1249 Z1250 Z1251 Z1252 Z1253 Z1254 Z1255 Z1256 Z1257 Z1258 Z1259 Z1260 Z1261 Z1262 Z1263 Z1264 Z1265 Z1266 Z1267 Z1268 Z1269 Z1270 Z1271 Z1272 Z1273 Z1274 Z1275 Z1276 Z1277 Z1278 Z1279 Z1280 Z1281 Z1282 Z1283 Z1284 Z1285 Z1286 Z1287 Z1288 Z1289 Z1290 Z1291 Z1292 Z1293 Z1294 Z1295 Z1296 Z1297 Z1298 Z1299 Z1300 Z1301 Z1302 Z1303 Z1304 Z1305 Z1306 Z1307 Z1308 Z1309 Z1310 Z1311 Z1312 Z1313 Z1314 Z1315 Z1316 Z1317 Z1318 Z1319 Z1320 Z1321 Z1322 Z1323 Z1324 Z1325 Z1326 Z1327 Z1328 Z1329 Z1330 Z1331 Z1332 Z1335 Z1336 Z1337 Z1338 Z1339 Z1340 Z1341 Z1342 Z1343 Z1344 Z1345 Z1346 Z1349 Z1350 Z1351 Z1352 Z1353 Z1354 Z1355 Z1356 Z1357 Z1358 Z1359 Z1360 Z1361 Z1362 Z1363 Z1364 Z1365 Z1366 Z1367 Z1368 Z1369 Z1370 Z1371 Z1372 Z1373 Z1374 Z1375 Z1376 Z1377 Z1378 Z1379 Z1380 Z1381 Z1382 Z1385 Z1386 Z1387 Z1388 Z1389 Z1390 Z1391 Z1392 Z1393 Z1394 Z1395 Z1396 Z1397 Z1398 Z1399 Z1400 Z1401 Z1402 Z1403 Z1404 Z1405 Z1406 Z1407 Z1408 Z1409 Z1410 Z1411 Z1412 Z1413 Z1414 Z1415 Z1416 Z1419 Z1420 Z1421 Z1422 Z1423 Z1424 Z1425 Z1426 Z1428 Z1429 Z1430 Z1431 Z1432 Z1433 Z1434 Z1435 Z1436 Z1437 Z1438 Z1439 Z1440 Z1441 Z1442 Z1443 Z1444 Z1445 Z1446 Z1447 Z1448 Z1449 Z1450 Z1451 Z1452 Z1453 Z1454 Z1455 Z1456 Z1457 Z1458 Z1459 Z1460 Z1461 Z1462 Z1463 Z1464 Z1465 Z1466 Z1467 Z1468 Z1471 Z1472 Z1473 Z1474 Z1475 Z1476 Z1477 Z1478 Z1479 Z1480 Z1481 Z1482 Z1483 Z1484 Z1485 Z1486 Z1487 Z1488 Z1489 Z1490 Z1491 Z1492 Z1493 Z1494 Z1495 Z1496 Z1497 Z1498 Z1499 Z1500 Z1501 Z1502 Z1503 Z1504 Z1505 Z1506 Z1507 Z1508 Z1509 Z1510 Z1511 Z1512 Z1513 Z1514 Z1515 Z1516 Z1539 Z1540 Z1541 Z1542 Z1543 Z1544 Z1545 Z1546 Z1547 Z1548 Z1549 Z1550 Z1551 Z1552 Z1553 Z1554 Z1555 Z1556 Z1557 Z1558 Z1559 Z1560 Z1563 Z1564 Z1565 Z1566 Z1567 Z1568 Z1569 Z1570 Z1571 Z1572 Z1573 Z1574 Z1575 Z1576 ;
set Y:= Y1 Y2 Y3 Y4 Y5 Y6 Y7 Y8 Y9 Y10 Y11 Y39 Y55 Y69 Y70 Y83 Y84 Y103 Y104 Y282 Y283 Y284 Y285 Y286 Y287 Y288 Y289 Y290 Y291 Y292 Y293 Y294 Y295 Y296 Y297 Y298 Y299 Y300 Y301 Y302 Y316 Y317 Y318 Y319 Y320 Y17 Y18 Y19 Y20 Y21 Y22 Y23 Y24 Y25 Y26 Y27 Y28 Y29 Y30 Y31 Y32 Y33 Y34 Y35 Y36 Y37 Y38 Y40 Y41 Y42 Y43 Y44 Y45 Y46 Y47 Y48 Y49 Y50 Y51 Y52 Y53 Y54 Y56 Y57 Y58 Y59 Y60 Y61 Y62 Y63 Y64 Y65 Y66 Y67 Y68 Y71 Y72 Y73 Y74 Y75 Y76 Y77 Y78 Y79 Y80 Y81 Y82 Y85 Y86 Y87 Y88 Y89 Y90 Y91 Y92 Y93 Y94 Y95 Y96 Y97 Y98 Y99 Y100 Y101 Y102 Y105 Y106 Y107 Y108 Y109 Y110 Y111 Y112 Y113 Y114 Y115 Y116 Y117 Y118 Y119 Y120 Y121 Y122 Y123 Y124 Y125 Y126 Y127 Y128 Y129 Y130 Y131 Y132 Y133 Y134 Y135 Y136 Y137 Y138 Y139 Y140 Y141 Y142 Y143 Y144 Y145 Y146 Y147 Y148 Y149 Y150 Y151 Y152 Y153 Y154 Y155 Y156 Y157 Y158 Y159 Y160 Y161 Y162 Y163 Y164 Y165 Y166 Y185 Y186 Y437 Y438 Y439 Y440 Y441 Y442 Y12 Y303 Y304 Y305 Y306 Y307 Y308 Y309 Y310 Y311 Y312 Y313 Y314 Y315 Y321 Y322 Y323 Y324 Y325 Y331 Y332 Y333 Y335 Y336 Y337 Y338 Y339 Y340 Y341 Y342 Y343 Y344 Y13 Y14 Y15 Y16 Y167 Y168 Y169 Y170 Y171 Y172 Y173 Y174 Y175 Y176 Y177 Y178 Y179 Y180 Y181 Y182 Y183 Y184 Y187 Y188 Y189 Y190 Y191 Y192 Y193 Y194 Y195 Y196 Y197 Y198 Y199 Y200 Y201 Y202 Y203 Y204 Y205 Y206 Y207 Y208 Y209 Y210 Y211 Y212 Y213 Y214 Y215 Y216 Y217 Y218 Y219 Y220 Y221 Y222 Y223 Y224 Y225 Y226 Y227 Y228 Y229 Y230 Y231 Y232 Y233 Y234 Y235 Y236 Y237 Y238 Y239 Y240 Y241 Y242 Y243 Y244 Y245 Y246 Y247 Y248 Y249 Y250 Y251 Y252 Y253 Y254 Y255 Y256 Y257 Y258 Y259 Y260 Y261 Y262 Y263 Y264 Y265 Y266 Y267 Y268 Y269 Y270 Y271 Y272 Y273 Y274 Y275 Y276 Y277 Y278 Y279 Y280 Y281 Y326 Y327 Y328 Y329 Y330 Y334 Y345 Y346 Y347 Y348 Y349 Y350 Y351 Y352 Y353 Y354 Y355 Y356 Y357 Y358 Y359 Y360 Y361 Y362 Y363 Y364 Y365 Y366 Y367 Y368 Y369 Y370 Y371 Y372 Y373 Y374 Y375 Y376 Y377 Y378 Y379 Y380 Y381 Y382 Y383 Y384 Y385 Y386 Y387 Y388 Y389 Y390 Y391 Y392 Y393 Y394 Y395 Y396 Y397 Y398 Y399 Y400 Y401 Y402 Y403 Y404 Y405 Y406 Y407 Y408 Y409 Y410 Y411 Y412 Y413 Y414 Y415 Y416 Y417 Y418 Y419 Y420 Y421 Y422 Y423 Y424 Y425 Y426 Y427 Y428 Y429 Y430 Y431 Y432 Y433 Y434 Y435 Y436 Y443 Y444 Y445 Y446 Y447 Y448 Y449 Y450 Y451 Y452 Y453 ;
param A := 
[Z45,Y13] 1[Z46,Y13] 1[Z47,Y13] 1[Z47,Y14] 1[Z48,Y13] 1[Z48,Y14] 1[Z49,Y14] 1[Z50,Y14] 1[Z51,Y14] 1[Z51,Y15] 1[Z52,Y14] 1[Z52,Y15] 1[Z53,Y15] 1[Z54,Y15] 1[Z55,Y15] 1[Z55,Y16] 1[Z56,Y15] 1[Z56,Y16] 1[Z57,Y16] 1[Z57,Y268] 1[Z58,Y16] 1[Z58,Y268] 1[Z60,Y17] 1[Z60,Y268] 1[Z62,Y17] 1[Z62,Y119] 1[Z62,Y438] 1[Z593,Y167] 1[Z593,Y188] 1[Z594,Y167] 1[Z594,Y188] 1[Z595,Y168] 1[Z596,Y168] 1[Z597,Y168] 1[Z598,Y168] 1[Z599,Y169] 1[Z599,Y193] 1[Z600,Y169] 1[Z600,Y193] 1[Z601,Y170] 1[Z602,Y170] 1[Z603,Y170] 1[Z604,Y170] 1[Z605,Y171] 1[Z605,Y198] 1[Z606,Y171] 1[Z606,Y198] 1[Z607,Y171] 1[Z607,Y198] 1[Z607,Y199] 1[Z608,Y171] 1[Z608,Y198] 1[Z608,Y199] 1[Z609,Y172] 1[Z610,Y172] 1[Z611,Y172] 1[Z612,Y172] 1[Z613,Y173] 1[Z614,Y173] 1[Z615,Y174] 1[Z615,Y203] 1[Z616,Y174] 1[Z616,Y203] 1[Z617,Y174] 1[Z617,Y203] 1[Z618,Y174] 1[Z618,Y202] 1[Z618,Y203] 1[Z619,Y174] 1[Z619,Y203] 1[Z620,Y174] 1[Z623,Y175] 1[Z624,Y175] 1[Z625,Y175] 1[Z625,Y176] 1[Z626,Y175] 1[Z626,Y176] 1[Z627,Y176] 1[Z627,Y177] 1[Z628,Y176] 1[Z628,Y177] 1[Z629,Y177] 1[Z629,Y208] 1[Z629,Y209] 1[Z630,Y177] 1[Z630,Y208] 1[Z630,Y209] 1[Z631,Y178] 1[Z632,Y178] 1[Z633,Y178] 1[Z634,Y178] 1[Z635,Y179] 1[Z636,Y179] 1[Z637,Y179] 1[Z638,Y179] 1[Z639,Y180] 1[Z640,Y180] 1[Z641,Y180] 1[Z641,Y181] 1[Z641,Y212] 1[Z642,Y181] 1[Z642,Y212] 1[Z642,Y213] 1[Z643,Y181] 1[Z643,Y212] 1[Z643,Y213] 1[Z644,Y181] 1[Z644,Y212] 1[Z644,Y213] 1[Z645,Y182] 1[Z646,Y182] 1[Z647,Y182] 1[Z648,Y182] 1[Z649,Y183] 1[Z650,Y183] 1[Z651,Y184] 1[Z652,Y184] 1[Z653,Y184] 1[Z654,Y184] 1[Z655,Y215] 1[Z655,Y216] 1[Z656,Y215] 1[Z656,Y216] 1[Z663,Y186] 1[Z663,Y187] 1[Z664,Y186] 1[Z664,Y187] 1[Z665,Y167] 1[Z665,Y187] 1[Z665,Y188] 1[Z666,Y167] 1[Z666,Y187] 1[Z666,Y188] 1[Z667,Y167] 1[Z667,Y188] 1[Z668,Y167] 1[Z668,Y188] 1[Z669,Y167] 1[Z669,Y188] 1[Z669,Y189] 1[Z670,Y167] 1[Z670,Y188] 1[Z670,Y189] 1[Z671,Y189] 1[Z671,Y190] 1[Z672,Y189] 1[Z672,Y190] 1[Z673,Y190] 1[Z674,Y190] 1[Z675,Y191] 1[Z676,Y191] 1[Z677,Y191] 1[Z678,Y191] 1[Z679,Y191] 1[Z680,Y191] 1[Z681,Y192] 1[Z682,Y192] 1[Z683,Y192] 1[Z683,Y193] 1[Z684,Y192] 1[Z685,Y169] 1[Z685,Y193] 1[Z686,Y169] 1[Z686,Y193] 1[Z687,Y194] 1[Z688,Y194] 1[Z689,Y194] 1[Z689,Y195] 1[Z690,Y194] 1[Z690,Y195] 1[Z691,Y196] 1[Z692,Y196] 1[Z693,Y196] 1[Z693,Y197] 1[Z694,Y196] 1[Z694,Y197] 1[Z695,Y197] 1[Z696,Y197] 1[Z697,Y197] 1[Z698,Y197] 1[Z699,Y171] 1[Z699,Y198] 1[Z699,Y199] 1[Z700,Y171] 1[Z700,Y198] 1[Z700,Y199] 1[Z701,Y171] 1[Z701,Y199] 1[Z702,Y171] 1[Z702,Y199] 1[Z703,Y199] 1[Z703,Y200] 1[Z704,Y199] 1[Z704,Y200] 1[Z705,Y200] 1[Z705,Y231] 1[Z706,Y200] 1[Z706,Y231] 1[Z707,Y201] 1[Z707,Y228] 1[Z708,Y201] 1[Z708,Y228] 1[Z709,Y201] 1[Z709,Y202] 1[Z710,Y201] 1[Z710,Y202] 1[Z711,Y174] 1[Z711,Y202] 1[Z711,Y203] 1[Z712,Y174] 1[Z712,Y202] 1[Z712,Y203] 1[Z713,Y174] 1[Z713,Y203] 1[Z714,Y174] 1[Z714,Y203] 1[Z715,Y204] 1[Z716,Y204] 1[Z717,Y204] 1[Z718,Y204] 1[Z719,Y205] 1[Z720,Y205] 1[Z721,Y206] 1[Z722,Y206] 1[Z723,Y207] 1[Z724,Y207] 1[Z725,Y208] 1[Z726,Y208] 1[Z727,Y177] 1[Z727,Y208] 1[Z728,Y177] 1[Z728,Y208] 1[Z729,Y177] 1[Z729,Y209] 1[Z730,Y177] 1[Z730,Y209] 1[Z731,Y209] 1[Z732,Y209] 1[Z733,Y210] 1[Z734,Y210] 1[Z735,Y206] 1[Z735,Y210] 1[Z736,Y206] 1[Z736,Y210] 1[Z737,Y211] 1[Z738,Y211] 1[Z739,Y211] 1[Z740,Y211] 1[Z741,Y180] 1[Z741,Y181] 1[Z741,Y212] 1[Z742,Y180] 1[Z742,Y181] 1[Z742,Y212] 1[Z743,Y181] 1[Z743,Y212] 1[Z743,Y213] 1[Z744,Y181] 1[Z744,Y212] 1[Z744,Y213] 1[Z745,Y181] 1[Z745,Y213] 1[Z746,Y181] 1[Z746,Y213] 1[Z747,Y213] 1[Z748,Y213] 1[Z749,Y214] 1[Z750,Y213] 1[Z750,Y214] 1[Z751,Y214] 1[Z751,Y222] 1[Z752,Y214] 1[Z752,Y222] 1[Z753,Y215] 1[Z754,Y215] 1[Z755,Y215] 1[Z755,Y216] 1[Z756,Y215] 1[Z756,Y216] 1[Z757,Y216] 1[Z758,Y216] 1[Z759,Y217] 1[Z760,Y217] 1[Z761,Y217] 1[Z761,Y218] 1[Z762,Y217] 1[Z762,Y218] 1[Z763,Y218] 1[Z763,Y219] 1[Z764,Y218] 1[Z764,Y219] 1[Z765,Y219] 1[Z766,Y219] 1[Z767,Y220] 1[Z768,Y220] 1[Z769,Y220] 1[Z770,Y220] 1[Z773,Y221] 1[Z774,Y221] 1[Z775,Y221] 1[Z776,Y221] 1[Z777,Y214] 1[Z777,Y222] 1[Z778,Y214] 1[Z778,Y222] 1[Z779,Y222] 1[Z779,Y223] 1[Z780,Y222] 1[Z780,Y223] 1[Z781,Y223] 1[Z782,Y223] 1[Z785,Y224] 1[Z786,Y224] 1[Z787,Y224] 1[Z788,Y224] 1[Z789,Y352] 1[Z790,Y352] 1[Z791,Y207] 1[Z791,Y225] 1[Z792,Y207] 1[Z792,Y225] 1[Z793,Y225] 1[Z793,Y226] 1[Z794,Y225] 1[Z794,Y226] 1[Z795,Y226] 1[Z796,Y226] 1[Z797,Y227] 1[Z798,Y227] 1[Z799,Y227] 1[Z800,Y227] 1[Z803,Y201] 1[Z803,Y228] 1[Z804,Y201] 1[Z804,Y228] 1[Z806,Y229] 1[Z807,Y229] 1[Z808,Y229] 1[Z809,Y230] 1[Z810,Y230] 1[Z811,Y230] 1[Z812,Y230] 1[Z813,Y200] 1[Z813,Y231] 1[Z814,Y200] 1[Z814,Y231] 1[Z815,Y200] 1[Z815,Y231] 1[Z816,Y200] 1[Z816,Y231] 1[Z817,Y232] 1[Z818,Y232] 1[Z819,Y233] 1[Z820,Y233] 1[Z821,Y195] 1[Z821,Y233] 1[Z822,Y195] 1[Z822,Y233] 1[Z823,Y234] 1[Z824,Y234] 1[Z825,Y234] 1[Z825,Y235] 1[Z826,Y234] 1[Z826,Y235] 1[Z827,Y190] 1[Z827,Y235] 1[Z827,Y244] 1[Z828,Y190] 1[Z828,Y235] 1[Z828,Y244] 1[Z829,Y236] 1[Z830,Y236] 1[Z831,Y236] 1[Z832,Y236] 1[Z833,Y237] 1[Z833,Y246] 1[Z834,Y237] 1[Z834,Y246] 1[Z835,Y237] 1[Z835,Y246] 1[Z836,Y237] 1[Z836,Y246] 1[Z837,Y238] 1[Z837,Y443] 1[Z838,Y238] 1[Z838,Y443] 1[Z839,Y238] 1[Z839,Y239] 1[Z840,Y238] 1[Z840,Y239] 1[Z841,Y239] 1[Z842,Y239] 1[Z843,Y240] 1[Z844,Y240] 1[Z845,Y241] 1[Z846,Y241] 1[Z847,Y241] 1[Z848,Y241] 1[Z849,Y242] 1[Z850,Y242] 1[Z851,Y242] 1[Z851,Y243] 1[Z851,Y248] 1[Z852,Y242] 1[Z852,Y243] 1[Z852,Y248] 1[Z853,Y245] 1[Z853,Y246] 1[Z854,Y245] 1[Z854,Y246] 1[Z855,Y244] 1[Z855,Y245] 1[Z856,Y244] 1[Z856,Y245] 1[Z857,Y245] 1[Z858,Y245] 1[Z859,Y246] 1[Z860,Y246] 1[Z861,Y237] 1[Z861,Y246] 1[Z862,Y237] 1[Z862,Y246] 1[Z863,Y247] 1[Z864,Y247] 1[Z865,Y247] 1[Z866,Y247] 1[Z867,Y247] 1[Z867,Y248] 1[Z868,Y247] 1[Z868,Y248] 1[Z869,Y243] 1[Z869,Y248] 1[Z870,Y243] 1[Z870,Y248] 1[Z871,Y243] 1[Z871,Y249] 1[Z872,Y243] 1[Z872,Y248] 1[Z872,Y249] 1[Z873,Y249] 1[Z874,Y249] 1[Z875,Y250] 1[Z876,Y250] 1[Z877,Y250] 1[Z878,Y250] 1[Z879,Y251] 1[Z880,Y251] 1[Z881,Y251] 1[Z882,Y251] 1[Z883,Y251] 1[Z884,Y251] 1[Z885,Y252] 1[Z886,Y252] 1[Z887,Y252] 1[Z888,Y252] 1[Z889,Y253] 1[Z889,Y254] 1[Z889,Y372] 1[Z890,Y253] 1[Z890,Y254] 1[Z890,Y372] 1[Z891,Y253] 1[Z891,Y254] 1[Z891,Y372] 1[Z892,Y253] 1[Z892,Y254] 1[Z892,Y372] 1[Z893,Y255] 1[Z893,Y435] 1[Z894,Y255] 1[Z894,Y435] 1[Z895,Y255] 1[Z895,Y434] 1[Z895,Y435] 1[Z896,Y255] 1[Z896,Y434] 1[Z896,Y435] 1[Z897,Y256] 1[Z897,Y434] 1[Z898,Y256] 1[Z898,Y434] 1[Z899,Y256] 1[Z899,Y433] 1[Z900,Y256] 1[Z900,Y433] 1[Z901,Y257] 1[Z902,Y257] 1[Z904,Y258] 1[Z905,Y258] 1[Z906,Y258] 1[Z907,Y259] 1[Z908,Y259] 1[Z909,Y259] 1[Z910,Y259] 1[Z911,Y260] 1[Z912,Y260] 1[Z913,Y260] 1[Z914,Y260] 1[Z915,Y260] 1[Z916,Y260] 1[Z917,Y261] 1[Z918,Y261] 1[Z921,Y262] 1[Z922,Y262] 1[Z923,Y262] 1[Z923,Y263] 1[Z924,Y262] 1[Z924,Y263] 1[Z925,Y263] 1[Z925,Y270] 1[Z926,Y263] 1[Z926,Y270] 1[Z927,Y264] 1[Z928,Y264] 1[Z929,Y264] 1[Z929,Y265] 1[Z930,Y264] 1[Z930,Y265] 1[Z931,Y265] 1[Z931,Y266] 1[Z932,Y265] 1[Z932,Y272] 1[Z933,Y265] 1[Z933,Y266] 1[Z934,Y265] 1[Z934,Y266] 1[Z935,Y266] 1[Z936,Y266] 1[Z937,Y267] 1[Z938,Y267] 1[Z939,Y267] 1[Z939,Y277] 1[Z939,Y278] 1[Z940,Y267] 1[Z940,Y277] 1[Z940,Y278] 1[Z941,Y268] 1[Z942,Y268] 1[Z943,Y269] 1[Z944,Y269] 1[Z945,Y269] 1[Z946,Y269] 1[Z947,Y270] 1[Z948,Y270] 1[Z951,Y271] 1[Z952,Y271] 1[Z953,Y271] 1[Z954,Y271] 1[Z957,Y265] 1[Z957,Y272] 1[Z958,Y265] 1[Z958,Y272] 1[Z959,Y273] 1[Z960,Y273] 1[Z961,Y274] 1[Z962,Y274] 1[Z963,Y266] 1[Z964,Y266] 1[Z965,Y275] 1[Z966,Y275] 1[Z967,Y276] 1[Z968,Y276] 1[Z969,Y276] 1[Z970,Y276] 1[Z971,Y277] 1[Z972,Y277] 1[Z973,Y267] 1[Z973,Y277] 1[Z973,Y278] 1[Z974,Y267] 1[Z974,Y277] 1[Z974,Y278] 1[Z975,Y278] 1[Z976,Y278] 1[Z977,Y279] 1[Z978,Y279] 1[Z979,Y280] 1[Z980,Y280] 1[Z981,Y280] 1[Z982,Y280] 1[Z983,Y281] 1[Z983,Y327] 1[Z984,Y281] 1[Z984,Y327] 1[Z1145,Y326] 1[Z1146,Y326] 1[Z1147,Y281] 1[Z1147,Y327] 1[Z1148,Y281] 1[Z1148,Y327] 1[Z1149,Y281] 1[Z1149,Y327] 1[Z1149,Y328] 1[Z1150,Y281] 1[Z1150,Y327] 1[Z1150,Y328] 1[Z1151,Y328] 1[Z1151,Y329] 1[Z1152,Y328] 1[Z1152,Y329] 1[Z1153,Y329] 1[Z1154,Y329] 1[Z1155,Y330] 1[Z1156,Y330] 1[Z1157,Y330] 1[Z1158,Y330] 1[Z1169,Y334] 1[Z1170,Y334] 1[Z1209,Y345] 1[Z1209,Y346] 1[Z1210,Y345] 1[Z1210,Y346] 1[Z1211,Y345] 1[Z1211,Y346] 1[Z1212,Y345] 1[Z1212,Y346] 1[Z1213,Y346] 1[Z1213,Y347] 1[Z1214,Y346] 1[Z1214,Y347] 1[Z1215,Y347] 1[Z1216,Y347] 1[Z1217,Y348] 1[Z1218,Y348] 1[Z1219,Y348] 1[Z1220,Y348] 1[Z1221,Y348] 1[Z1221,Y349] 1[Z1222,Y348] 1[Z1222,Y349] 1[Z1223,Y349] 1[Z1223,Y350] 1[Z1224,Y349] 1[Z1224,Y350] 1[Z1225,Y349] 1[Z1225,Y350] 1[Z1226,Y349] 1[Z1226,Y350] 1[Z1227,Y350] 1[Z1227,Y351] 1[Z1228,Y350] 1[Z1228,Y351] 1[Z1229,Y351] 1[Z1230,Y351] 1[Z1231,Y351] 1[Z1231,Y370] 1[Z1232,Y351] 1[Z1232,Y370] 1[Z1233,Y352] 1[Z1233,Y353] 1[Z1234,Y352] 1[Z1234,Y353] 1[Z1235,Y353] 1[Z1235,Y359] 1[Z1236,Y353] 1[Z1236,Y359] 1[Z1237,Y353] 1[Z1237,Y354] 1[Z1237,Y360] 1[Z1238,Y353] 1[Z1238,Y354] 1[Z1238,Y359] 1[Z1238,Y360] 1[Z1239,Y354] 1[Z1239,Y360] 1[Z1240,Y354] 1[Z1240,Y360] 1[Z1241,Y354] 1[Z1241,Y355] 1[Z1242,Y354] 1[Z1242,Y355] 1[Z1243,Y355] 1[Z1243,Y363] 1[Z1244,Y355] 1[Z1244,Y363] 1[Z1245,Y356] 1[Z1245,Y363] 1[Z1246,Y356] 1[Z1246,Y363] 1[Z1247,Y356] 1[Z1247,Y366] 1[Z1248,Y356] 1[Z1248,Y366] 1[Z1249,Y356] 1[Z1249,Y366] 1[Z1250,Y356] 1[Z1250,Y366] 1[Z1251,Y357] 1[Z1252,Y357] 1[Z1253,Y358] 1[Z1254,Y358] 1[Z1255,Y358] 1[Z1256,Y358] 1[Z1257,Y359] 1[Z1258,Y359] 1[Z1259,Y353] 1[Z1259,Y359] 1[Z1260,Y353] 1[Z1260,Y359] 1[Z1261,Y354] 1[Z1261,Y360] 1[Z1262,Y354] 1[Z1262,Y360] 1[Z1263,Y354] 1[Z1263,Y360] 1[Z1264,Y354] 1[Z1264,Y360] 1[Z1265,Y361] 1[Z1266,Y361] 1[Z1267,Y361] 1[Z1268,Y361] 1[Z1269,Y362] 1[Z1270,Y362] 1[Z1271,Y362] 1[Z1272,Y362] 1[Z1273,Y363] 1[Z1273,Y364] 1[Z1274,Y363] 1[Z1274,Y364] 1[Z1275,Y364] 1[Z1276,Y364] 1[Z1277,Y365] 1[Z1278,Y365] 1[Z1279,Y365] 1[Z1280,Y365] 1[Z1281,Y348] 1[Z1281,Y349] 1[Z1282,Y348] 1[Z1282,Y349] 1[Z1283,Y366] 1[Z1284,Y356] 1[Z1284,Y366] 1[Z1285,Y366] 1[Z1286,Y366] 1[Z1287,Y367] 1[Z1288,Y367] 1[Z1289,Y367] 1[Z1289,Y368] 1[Z1290,Y367] 1[Z1290,Y368] 1[Z1291,Y368] 1[Z1291,Y369] 1[Z1292,Y369] 1[Z1293,Y369] 1[Z1294,Y369] 1[Z1295,Y370] 1[Z1296,Y370] 1[Z1297,Y370] 1[Z1298,Y370] 1[Z1299,Y370] 1[Z1299,Y371] 1[Z1300,Y370] 1[Z1300,Y371] 1[Z1301,Y371] 1[Z1302,Y371] 1[Z1303,Y254] 1[Z1303,Y371] 1[Z1304,Y254] 1[Z1304,Y371] 1[Z1305,Y253] 1[Z1305,Y254] 1[Z1305,Y372] 1[Z1306,Y253] 1[Z1306,Y254] 1[Z1306,Y372] 1[Z1307,Y372] 1[Z1308,Y372] 1[Z1309,Y373] 1[Z1310,Y373] 1[Z1311,Y373] 1[Z1311,Y374] 1[Z1312,Y373] 1[Z1312,Y374] 1[Z1313,Y375] 1[Z1314,Y375] 1[Z1315,Y328] 1[Z1316,Y328] 1[Z1317,Y376] 1[Z1318,Y376] 1[Z1319,Y376] 1[Z1320,Y376] 1[Z1321,Y377] 1[Z1322,Y377] 1[Z1323,Y377] 1[Z1323,Y378] 1[Z1324,Y377] 1[Z1324,Y378] 1[Z1325,Y378] 1[Z1326,Y378] 1[Z1327,Y378] 1[Z1328,Y378] 1[Z1329,Y379] 1[Z1330,Y379] 1[Z1331,Y379] 1[Z1332,Y379] 1[Z1335,Y380] 1[Z1336,Y380] 1[Z1337,Y381] 1[Z1338,Y381] 1[Z1339,Y381] 1[Z1339,Y382] 1[Z1340,Y381] 1[Z1340,Y382] 1[Z1341,Y382] 1[Z1341,Y383] 1[Z1342,Y382] 1[Z1342,Y383] 1[Z1343,Y383] 1[Z1343,Y384] 1[Z1344,Y383] 1[Z1344,Y384] 1[Z1345,Y384] 1[Z1346,Y384] 1[Z1349,Y385] 1[Z1350,Y385] 1[Z1351,Y385] 1[Z1352,Y385] 1[Z1353,Y386] 1[Z1354,Y386] 1[Z1355,Y386] 1[Z1355,Y387] 1[Z1356,Y386] 1[Z1356,Y387] 1[Z1357,Y387] 1[Z1357,Y402] 1[Z1358,Y387] 1[Z1358,Y402] 1[Z1359,Y388] 1[Z1360,Y388] 1[Z1361,Y388] 1[Z1361,Y389] 1[Z1362,Y388] 1[Z1362,Y389] 1[Z1363,Y389] 1[Z1363,Y399] 1[Z1363,Y400] 1[Z1364,Y389] 1[Z1364,Y399] 1[Z1364,Y400] 1[Z1365,Y390] 1[Z1366,Y390] 1[Z1367,Y390] 1[Z1368,Y390] 1[Z1369,Y391] 1[Z1370,Y391] 1[Z1371,Y391] 1[Z1372,Y391] 1[Z1373,Y391] 1[Z1373,Y392] 1[Z1374,Y391] 1[Z1374,Y392] 1[Z1375,Y392] 1[Z1376,Y392] 1[Z1377,Y393] 1[Z1378,Y393] 1[Z1379,Y394] 1[Z1380,Y394] 1[Z1381,Y394] 1[Z1381,Y395] 1[Z1382,Y394] 1[Z1382,Y395] 1[Z1385,Y396] 1[Z1386,Y396] 1[Z1387,Y396] 1[Z1388,Y396] 1[Z1389,Y397] 1[Z1390,Y397] 1[Z1391,Y397] 1[Z1391,Y398] 1[Z1392,Y397] 1[Z1392,Y398] 1[Z1393,Y398] 1[Z1393,Y399] 1[Z1394,Y398] 1[Z1395,Y389] 1[Z1395,Y399] 1[Z1396,Y389] 1[Z1396,Y399] 1[Z1397,Y389] 1[Z1397,Y400] 1[Z1398,Y389] 1[Z1398,Y400] 1[Z1399,Y395] 1[Z1399,Y401] 1[Z1400,Y395] 1[Z1400,Y401] 1[Z1401,Y402] 1[Z1401,Y403] 1[Z1402,Y402] 1[Z1402,Y403] 1[Z1403,Y403] 1[Z1404,Y403] 1[Z1405,Y404] 1[Z1406,Y404] 1[Z1407,Y405] 1[Z1408,Y405] 1[Z1409,Y406] 1[Z1410,Y406] 1[Z1411,Y406] 1[Z1412,Y406] 1[Z1413,Y407] 1[Z1414,Y407] 1[Z1415,Y407] 1[Z1416,Y407] 1[Z1419,Y408] 1[Z1420,Y408] 1[Z1421,Y409] 1[Z1422,Y409] 1[Z1423,Y409] 1[Z1424,Y409] 1[Z1425,Y410] 1[Z1426,Y410] 1[Z1428,Y410] 1[Z1429,Y411] 1[Z1430,Y411] 1[Z1431,Y411] 1[Z1431,Y412] 1[Z1432,Y411] 1[Z1432,Y412] 1[Z1433,Y412] 1[Z1434,Y412] 1[Z1435,Y408] 1[Z1435,Y412] 1[Z1436,Y408] 1[Z1436,Y412] 1[Z1437,Y408] 1[Z1438,Y408] 1[Z1439,Y413] 1[Z1440,Y413] 1[Z1441,Y414] 1[Z1442,Y414] 1[Z1443,Y414] 1[Z1443,Y415] 1[Z1444,Y414] 1[Z1444,Y415] 1[Z1445,Y415] 1[Z1445,Y416] 1[Z1446,Y415] 1[Z1446,Y416] 1[Z1447,Y416] 1[Z1447,Y417] 1[Z1448,Y416] 1[Z1448,Y417] 1[Z1449,Y417] 1[Z1450,Y417] 1[Z1451,Y417] 1[Z1451,Y418] 1[Z1452,Y417] 1[Z1452,Y418] 1[Z1453,Y418] 1[Z1454,Y418] 1[Z1455,Y419] 1[Z1456,Y419] 1[Z1457,Y419] 1[Z1457,Y420] 1[Z1458,Y419] 1[Z1458,Y420] 1[Z1459,Y393] 1[Z1459,Y420] 1[Z1460,Y393] 1[Z1460,Y420] 1[Z1461,Y420] 1[Z1461,Y421] 1[Z1462,Y420] 1[Z1463,Y421] 1[Z1464,Y421] 1[Z1465,Y421] 1[Z1465,Y422] 1[Z1466,Y421] 1[Z1466,Y422] 1[Z1467,Y422] 1[Z1468,Y422] 1[Z1471,Y423] 1[Z1472,Y423] 1[Z1473,Y423] 1[Z1473,Y424] 1[Z1474,Y423] 1[Z1474,Y424] 1[Z1475,Y424] 1[Z1476,Y424] 1[Z1477,Y424] 1[Z1477,Y425] 1[Z1478,Y424] 1[Z1478,Y425] 1[Z1479,Y425] 1[Z1480,Y425] 1[Z1481,Y425] 1[Z1481,Y426] 1[Z1482,Y425] 1[Z1482,Y426] 1[Z1483,Y426] 1[Z1484,Y426] 1[Z1485,Y426] 1[Z1485,Y427] 1[Z1486,Y427] 1[Z1487,Y218] 1[Z1487,Y427] 1[Z1488,Y218] 1[Z1488,Y427] 1[Z1489,Y428] 1[Z1490,Y428] 1[Z1491,Y428] 1[Z1492,Y428] 1[Z1493,Y429] 1[Z1494,Y429] 1[Z1495,Y429] 1[Z1496,Y429] 1[Z1497,Y430] 1[Z1498,Y430] 1[Z1499,Y431] 1[Z1500,Y431] 1[Z1501,Y431] 1[Z1501,Y432] 1[Z1502,Y431] 1[Z1502,Y432] 1[Z1503,Y431] 1[Z1503,Y432] 1[Z1504,Y432] 1[Z1505,Y257] 1[Z1505,Y433] 1[Z1506,Y256] 1[Z1506,Y257] 1[Z1506,Y433] 1[Z1507,Y256] 1[Z1507,Y433] 1[Z1508,Y256] 1[Z1508,Y433] 1[Z1508,Y434] 1[Z1509,Y255] 1[Z1509,Y434] 1[Z1510,Y255] 1[Z1510,Y434] 1[Z1511,Y255] 1[Z1511,Y434] 1[Z1511,Y435] 1[Z1512,Y255] 1[Z1512,Y434] 1[Z1512,Y435] 1[Z1513,Y435] 1[Z1513,Y436] 1[Z1514,Y435] 1[Z1514,Y436] 1[Z1515,Y437] 1[Z1515,Y436] 1[Z1516,Y437] 1[Z1516,Y436] 1[Z1539,Y238] 1[Z1539,Y443] 1[Z1540,Y238] 1[Z1540,Y443] 1[Z1541,Y443] 1[Z1541,Y444] 1[Z1542,Y443] 1[Z1542,Y444] 1[Z1543,Y444] 1[Z1544,Y444] 1[Z1545,Y257] 1[Z1545,Y433] 1[Z1545,Y444] 1[Z1546,Y256] 1[Z1546,Y433] 1[Z1546,Y444] 1[Z1547,Y445] 1[Z1548,Y445] 1[Z1549,Y446] 1[Z1550,Y445] 1[Z1550,Y446] 1[Z1551,Y446] 1[Z1551,Y447] 1[Z1552,Y446] 1[Z1553,Y447] 1[Z1554,Y447] 1[Z1555,Y448] 1[Z1556,Y448] 1[Z1557,Y448] 1[Z1558,Y448] 1[Z1559,Y449] 1[Z1560,Y449] 1[Z1563,Y450] 1[Z1564,Y450] 1[Z1565,Y450] 1[Z1565,Y451] 1[Z1566,Y450] 1[Z1566,Y451] 1[Z1567,Y451] 1[Z1568,Y451] 1[Z1569,Y452] 1[Z1570,Y452] 1[Z1571,Y452] 1[Z1572,Y452] 1[Z1573,Y453] 1[Z1574,Y453] 1[Z1575,Y381] 1[Z1575,Y453] 1[Z1576,Y381] 1[Z1576,Y453] 1
;end;
